(declare-const |i'| Int)
(declare-const |mem_14@pos'| Int)
(declare-const |mem_15@pos'| Int)
(declare-const |mem_15'| Int)
(declare-const |mem_14@width'| Int)
(declare-const |mem_15@width'| Int)
(declare-const v@width Int)
(declare-const |mem_14'| Int)
(declare-const v Int)
(declare-const v@pos Int)
(declare-const key Int)
(assert (exists
         ((phi_mem_15@width?1 Int) (phi_mem_14@width?2 Int)
            (phi_mem_15@pos?3 Int) (phi_mem_14@pos?4 Int) (phi_mem_15?5 Int)
            (phi_mem_14?6 Int) (tr?7 Int) (mem_14?8 Int) (mem_15?9 Int)
            (mem_14@pos?10 Int) (mem_15@pos?11 Int) (mem_14@width?12 Int)
            (mem_15@width?13 Int) (i?14 Int))
         (and (= v@pos 0) (<= (+ (- v@width) 1) 0) (= v@pos 0)
                (<= (- i?14) 0) (<= (+ (- tr?7) key 1) 0)
                (or (and (<= (+ (- i?14) 2) 0)
                           (= (+ (- phi_mem_14?6) mem_14?8) 0)
                           (= (+ (- phi_mem_15?5) mem_15?9) 0)
                           (= (+ (- phi_mem_14@pos?4) mem_14@pos?10) 0)
                           (= (+ (- phi_mem_15@pos?3) mem_15@pos?11) 0)
                           (= (+ (- phi_mem_14@width?2) mem_14@width?12) 0)
                           (= (+ (- phi_mem_15@width?1) mem_15@width?13) 0))
                      (and (<= (+ i?14 -1) 0)
                             (= (+ v (- phi_mem_14?6) (* 4 i?14) 4) 0)
                             (= (+ v (- phi_mem_15?5) (* 4 i?14)) 0)
                             (= (+ (- phi_mem_14@pos?4) (* 4 i?14) v@pos 4) 0)
                             (= (+ (- phi_mem_15@pos?3) (* 4 i?14) v@pos) 0)
                             (= (+ (- phi_mem_14@width?2) v@width) 0)
                             (= (+ (- phi_mem_15@width?1) v@width) 0)))
                (= (+ |mem_15@width'| (- phi_mem_15@width?1)) 0)
                (= (+ |mem_14@width'| (- phi_mem_14@width?2)) 0)
                (= (+ |mem_15@pos'| (- phi_mem_15@pos?3)) 0)
                (= (+ |mem_14@pos'| (- phi_mem_14@pos?4)) 0)
                (= (+ |mem_15'| (- phi_mem_15?5)) 0)
                (= (+ |mem_14'| (- phi_mem_14?6)) 0)
                (= (+ |i'| (- i?14) 1) 0))))
(check-sat)
